maximize

2 z1 + 3 z10 + 8 z11 + 2 z12 + 6 z13 - 9 z14 - 10 z15 - z16 - 7 z17 + 4 z18 + z19 + 5 z2 - z20 - 10 z3 - 10 z4 + 3 z5 + 5 z6 + 2 z7 + z8 - 6 z9 + [ -10 z1 * z10 - 3 z1 * z11 - 5 z1 * z12 + 4 z1 * z13 - z1 * z14 + 8 z1 * z15 - z1 * z16 - 9 z1 * z17 + 6 z1 * z18 - 3 z1 * z19 - 10 z1 * z2 - z1 * z3 + 5 z1 * z4 + 4 z1 * z5 + 10 z1 * z6 - 7 z1 * z7 - 2 z1 * z8 + 8 z1 * z9 + z10 * z11 + 2 z10 * z12 - 9 z10 * z13 - 8 z10 * z14 - 4 z10 * z15 + 7 z10 * z16 - 6 z10 * z17 - z10 * z18 - 5 z10 * z19 - 6 z10 * z2 - 6 z10 * z20 + 7 z10 * z3 + 9 z10 * z4 + 4 z10 * z6 + 5 z10 * z7 - 3 z10 * z8 - 7 z10 * z9 + z11 * z12 + 3 z11 * z13 + z11 * z14 + 4 z11 * z15 - 6 z11 * z16 + 9 z11 * z17 - 10 z11 * z18 + z11 * z19 - 4 z11 * z2 - 10 z11 * z20 + 9 z11 * z3 + z11 * z4 + z11 * z5 + 3 z11 * z6 - z11 * z7 - 3 z11 * z8 + 2 z11 * z9 - 8 z12 * z13 + 9 z12 * z14 + 4 z12 * z15 - 9 z12 * z16 - 7 z12 * z17 - 7 z12 * z18 - 8 z12 * z19 + 7 z12 * z2 - 7 z12 * z20 + 7 z12 * z3 + 2 z12 * z4 + 10 z12 * z5 + 5 z12 * z6 - 5 z12 * z7 - 2 z12 * z8 - 7 z12 * z9 - 9 z13 * z14 + 3 z13 * z15 + 4 z13 * z16 + 6 z13 * z17 - 8 z13 * z18 + 10 z13 * z19 + 3 z13 * z2 + 8 z13 * z20 + 7 z13 * z3 + 4 z13 * z4 - 7 z13 * z5 - 2 z13 * z6 + 3 z13 * z7 + 9 z13 * z8 + z13 * z9 - 5 z14 * z15 - 7 z14 * z16 + z14 * z17 - 8 z14 * z18 + 9 z14 * z19 + 7 z14 * z2 + 3 z14 * z20 + 2 z14 * z3 + 8 z14 * z4 + 7 z14 * z5 - 4 z14 * z6 + 7 z14 * z7 - 7 z14 * z8 + 8 z14 * z9 + 5 z15 * z16 - 10 z15 * z17 + 3 z15 * z18 - 9 z15 * z19 - 7 z15 * z2 + 10 z15 * z20 - 8 z15 * z3 + 8 z15 * z4 - 8 z15 * z6 - 7 z15 * z7 + 4 z15 * z8 - 4 z15 * z9 - 8 z16 * z18 + 10 z16 * z19 - 3 z16 * z2 + 9 z16 * z20 + 10 z16 * z3 - 10 z16 * z4 - 6 z16 * z5 - 8 z16 * z6 - 6 z16 * z7 + 4 z16 * z8 + 2 z16 * z9 + 6 z17 * z18 + 3 z17 * z19 - 8 z17 * z2 - 10 z17 * z20 + 4 z17 * z4 - 6 z17 * z5 - 6 z17 * z6 - 3 z17 * z7 + 4 z17 * z8 + 7 z17 * z9 - 8 z18 * z19 - 2 z18 * z2 + 6 z18 * z20 - 6 z18 * z3 - 7 z18 * z4 - 2 z18 * z5 - z18 * z6 - 7 z18 * z7 - 4 z18 * z8 + 10 z18 * z9 - 2 z19 * z2 + 2 z19 * z20 + 4 z19 * z3 + 9 z19 * z4 - 6 z19 * z5 - 6 z19 * z6 - 9 z19 * z7 - 2 z19 * z8 - 2 z19 * z9 - z2 * z20 - 5 z2 * z3 + 9 z2 * z4 + 3 z2 * z5 - 3 z2 * z6 - 9 z2 * z7 + 6 z2 * z8 - 9 z20 * z3 + 3 z20 * z4 - 10 z20 * z5 + 10 z20 * z6 + 6 z20 * z7 - 4 z20 * z8 + z20 * z9 + 6 z3 * z4 - 2 z3 * z5 + 3 z3 * z6 - 6 z3 * z7 + 6 z3 * z8 - 6 z3 * z9 + 7 z4 * z5 + 5 z4 * z6 - z4 * z8 - 7 z4 * z9 - z5 * z6 - 5 z5 * z7 + 10 z5 * z8 + z5 * z9 - 2 z6 * z7 + z6 * z8 - 10 z6 * z9 + z7 * z8 - z7 * z9 + 10 z8 * z9 ]

subject to

z1 + z10 + z11 + z12 + z13 + z14 + z15 + z16 + z17 + z18 + z19 + z2 + z20 + z3 + z4 + z5 + z6 + z7 + z8 + z9 = 10
z1 * z10 + z1 * z11 + z1 * z12 + z1 * z13 + z1 * z14 + z1 * z15 + z1 * z16 + z1 * z17 + z1 * z18 + z1 * z19 + z1 * z2 + z1 * z20 + z1 * z3 + z1 * z4 + z1 * z5 + z1 * z6 + z1 * z7 + z1 * z8 + z1 * z9 - 9 z1 = 0
z1 * z2 + z10 * z2 + z11 * z2 + z12 * z2 + z13 * z2 + z14 * z2 + z15 * z2 + z16 * z2 + z17 * z2 + z18 * z2 + z19 * z2 + z2 * z20 + z2 * z3 + z2 * z4 + z2 * z5 + z2 * z6 + z2 * z7 + z2 * z8 + z2 * z9 - 9 z2 = 0
z1 * z3 + z10 * z3 + z11 * z3 + z12 * z3 + z13 * z3 + z14 * z3 + z15 * z3 + z16 * z3 + z17 * z3 + z18 * z3 + z19 * z3 + z2 * z3 + z20 * z3 + z3 * z4 + z3 * z5 + z3 * z6 + z3 * z7 + z3 * z8 + z3 * z9 - 9 z3 = 0
z1 * z4 + z10 * z4 + z11 * z4 + z12 * z4 + z13 * z4 + z14 * z4 + z15 * z4 + z16 * z4 + z17 * z4 + z18 * z4 + z19 * z4 + z2 * z4 + z20 * z4 + z3 * z4 + z4 * z5 + z4 * z6 + z4 * z7 + z4 * z8 + z4 * z9 - 9 z4 = 0
z1 * z5 + z10 * z5 + z11 * z5 + z12 * z5 + z13 * z5 + z14 * z5 + z15 * z5 + z16 * z5 + z17 * z5 + z18 * z5 + z19 * z5 + z2 * z5 + z20 * z5 + z3 * z5 + z4 * z5 + z5 * z6 + z5 * z7 + z5 * z8 + z5 * z9 - 9 z5 = 0
z1 * z6 + z10 * z6 + z11 * z6 + z12 * z6 + z13 * z6 + z14 * z6 + z15 * z6 + z16 * z6 + z17 * z6 + z18 * z6 + z19 * z6 + z2 * z6 + z20 * z6 + z3 * z6 + z4 * z6 + z5 * z6 + z6 * z7 + z6 * z8 + z6 * z9 - 9 z6 = 0
z1 * z7 + z10 * z7 + z11 * z7 + z12 * z7 + z13 * z7 + z14 * z7 + z15 * z7 + z16 * z7 + z17 * z7 + z18 * z7 + z19 * z7 + z2 * z7 + z20 * z7 + z3 * z7 + z4 * z7 + z5 * z7 + z6 * z7 + z7 * z8 + z7 * z9 - 9 z7 = 0
z1 * z8 + z10 * z8 + z11 * z8 + z12 * z8 + z13 * z8 + z14 * z8 + z15 * z8 + z16 * z8 + z17 * z8 + z18 * z8 + z19 * z8 + z2 * z8 + z20 * z8 + z3 * z8 + z4 * z8 + z5 * z8 + z6 * z8 + z7 * z8 + z8 * z9 - 9 z8 = 0
z1 * z9 + z10 * z9 + z11 * z9 + z12 * z9 + z13 * z9 + z14 * z9 + z15 * z9 + z16 * z9 + z17 * z9 + z18 * z9 + z19 * z9 + z2 * z9 + z20 * z9 + z3 * z9 + z4 * z9 + z5 * z9 + z6 * z9 + z7 * z9 + z8 * z9 - 9 z9 = 0
z1 * z10 + z10 * z11 + z10 * z12 + z10 * z13 + z10 * z14 + z10 * z15 + z10 * z16 + z10 * z17 + z10 * z18 + z10 * z19 + z10 * z2 + z10 * z20 + z10 * z3 + z10 * z4 + z10 * z5 + z10 * z6 + z10 * z7 + z10 * z8 + z10 * z9 - 9 z10 = 0
z1 * z11 + z10 * z11 + z11 * z12 + z11 * z13 + z11 * z14 + z11 * z15 + z11 * z16 + z11 * z17 + z11 * z18 + z11 * z19 + z11 * z2 + z11 * z20 + z11 * z3 + z11 * z4 + z11 * z5 + z11 * z6 + z11 * z7 + z11 * z8 + z11 * z9 - 9 z11 = 0
z1 * z12 + z10 * z12 + z11 * z12 + z12 * z13 + z12 * z14 + z12 * z15 + z12 * z16 + z12 * z17 + z12 * z18 + z12 * z19 + z12 * z2 + z12 * z20 + z12 * z3 + z12 * z4 + z12 * z5 + z12 * z6 + z12 * z7 + z12 * z8 + z12 * z9 - 9 z12 = 0
z1 * z13 + z10 * z13 + z11 * z13 + z12 * z13 + z13 * z14 + z13 * z15 + z13 * z16 + z13 * z17 + z13 * z18 + z13 * z19 + z13 * z2 + z13 * z20 + z13 * z3 + z13 * z4 + z13 * z5 + z13 * z6 + z13 * z7 + z13 * z8 + z13 * z9 - 9 z13 = 0
z1 * z14 + z10 * z14 + z11 * z14 + z12 * z14 + z13 * z14 + z14 * z15 + z14 * z16 + z14 * z17 + z14 * z18 + z14 * z19 + z14 * z2 + z14 * z20 + z14 * z3 + z14 * z4 + z14 * z5 + z14 * z6 + z14 * z7 + z14 * z8 + z14 * z9 - 9 z14 = 0
z1 * z15 + z10 * z15 + z11 * z15 + z12 * z15 + z13 * z15 + z14 * z15 + z15 * z16 + z15 * z17 + z15 * z18 + z15 * z19 + z15 * z2 + z15 * z20 + z15 * z3 + z15 * z4 + z15 * z5 + z15 * z6 + z15 * z7 + z15 * z8 + z15 * z9 - 9 z15 = 0
z1 * z16 + z10 * z16 + z11 * z16 + z12 * z16 + z13 * z16 + z14 * z16 + z15 * z16 + z16 * z17 + z16 * z18 + z16 * z19 + z16 * z2 + z16 * z20 + z16 * z3 + z16 * z4 + z16 * z5 + z16 * z6 + z16 * z7 + z16 * z8 + z16 * z9 - 9 z16 = 0
z1 * z17 + z10 * z17 + z11 * z17 + z12 * z17 + z13 * z17 + z14 * z17 + z15 * z17 + z16 * z17 + z17 * z18 + z17 * z19 + z17 * z2 + z17 * z20 + z17 * z3 + z17 * z4 + z17 * z5 + z17 * z6 + z17 * z7 + z17 * z8 + z17 * z9 - 9 z17 = 0
z1 * z18 + z10 * z18 + z11 * z18 + z12 * z18 + z13 * z18 + z14 * z18 + z15 * z18 + z16 * z18 + z17 * z18 + z18 * z19 + z18 * z2 + z18 * z20 + z18 * z3 + z18 * z4 + z18 * z5 + z18 * z6 + z18 * z7 + z18 * z8 + z18 * z9 - 9 z18 = 0
z1 * z19 + z10 * z19 + z11 * z19 + z12 * z19 + z13 * z19 + z14 * z19 + z15 * z19 + z16 * z19 + z17 * z19 + z18 * z19 + z19 * z2 + z19 * z20 + z19 * z3 + z19 * z4 + z19 * z5 + z19 * z6 + z19 * z7 + z19 * z8 + z19 * z9 - 9 z19 = 0
z1 * z20 + z10 * z20 + z11 * z20 + z12 * z20 + z13 * z20 + z14 * z20 + z15 * z20 + z16 * z20 + z17 * z20 + z18 * z20 + z19 * z20 + z2 * z20 + z20 * z3 + z20 * z4 + z20 * z5 + z20 * z6 + z20 * z7 + z20 * z8 + z20 * z9 - 9 z20 = 0

binary

z1 z2 z3 z4 z5 z6 z7 z8 z9 z10 z11 z12 z13 z14 z15 z16 z17 z18 z19 z20

end
